% demand
num_movements = 43;
loading_factor = [1050, 1450, 1000, 1000, 1500, 1950, 1450, 900, 1200, 1100, 1750, 1850, 1600, 1700, 1200, 1500, 1300, 1350, 900, 1750, 1650, 850, 1850, 1950, 1950, 1250, 2000, 1150, 1050, 1000, 950, 1600, 950, 1000, 1300, 1050, 1900, 1550, 800, 1100, 1000, 1150, 1000];
pickup_time = [0, 0, 1, 2, 2, 2, 3, 3, 3, 3, 3, 4, 4, 4, 4, 5, 5, 5, 5, 6, 6, 6, 6, 6, 6, 7, 7, 7, 7, 8, 8, 9, 10, 10, 10, 10, 10, 11, 11, 11, 12, 12, 12];
delivery_time = [2, 2, 2, 5, 6, 4, 4, 6, 4, 4, 4, 6, 5, 5, 6, 6, 6, 6, 6, 11, 7, 9, 7, 9, 7, 8, 9, 9, 8, 9, 9, 11, 13, 12, 12, 13, 11, 12, 12, 13, 13, 13, 13];

% transporter definition
total_capacity = 11000;
num_decks = 4;
capacity = [3000, 3000, 1000, 4000];

% ways out of decks
num_ways_out = 2;
paths_out = array3d(decks, ways_out, decks, [
% ways out of deck d1
2, 4, 0, 0, 3, 4, 0, 0, 

% ways out of deck d2
4, 0, 0, 0, 0, 0, 0, 0,	

% ways out of deck d3
4, 0, 0, 0, 0, 0, 0, 0,	

% ways out of deck d4
0, 0, 0, 0,	0, 0, 0, 0,	

]);

